instances/knapsack/discrete/knapsack_110_5.lp
\ Model knapsack_110_5
\ LP format - for model browsing. Use MPS format to capture full model detail.
\ Signature: 0x1c7a262dccd0e095
Minimize
  - 65 x[0] - 2 x[1] - 15 x[2] - 75 x[3] - 9 x[4] - 100 x[5] - 61 x[6]
   - 35 x[7] - 86 x[8] - 18 x[9] - 58 x[10] - 22 x[11] - 10 x[12]
   - 49 x[13] - 86 x[14] - 83 x[15] - 45 x[16] - 57 x[17] - 26 x[18]
   - 73 x[19] - 21 x[20] - 90 x[21] - 23 x[22] - 15 x[23] - 80 x[24]
   - 66 x[25] - 83 x[26] - 19 x[27] - 13 x[28] - 96 x[29] - 96 x[30]
   - 91 x[31] - 23 x[32] - 14 x[33] - 67 x[34] - 64 x[35] - 44 x[36]
   - 10 x[37] - 34 x[38] - 71 x[39] - 23 x[40] - 45 x[41] - 61 x[42]
   - 66 x[43] - 22 x[44] - 50 x[45] - 92 x[46] - 52 x[47] - 36 x[48]
   - 93 x[49] - 90 x[50] - 38 x[51] - 38 x[52] - 96 x[53] - 79 x[54]
   - 17 x[55] - 82 x[56] - 51 x[57] - 23 x[58] - 62 x[59] - 71 x[60]
   - 97 x[61] - x[62] - 73 x[63] - 98 x[64] - 64 x[65] - 96 x[66]
   - 29 x[67] - 48 x[68] - 93 x[69] - 40 x[70] - 70 x[71] - 32 x[72]
   - 21 x[73] - 90 x[74] - 53 x[75] - 5 x[76] - 60 x[77] - 19 x[78]
   - 43 x[79] - 74 x[80] - 25 x[81] - 25 x[82] - 29 x[83] - 4 x[84]
   - 88 x[85] - 97 x[86] - 78 x[87] - 83 x[88] - 78 x[89] - 21 x[90]
   - 33 x[91] - 5 x[92] - 84 x[93] - 79 x[94] - 14 x[95] - 16 x[96]
   - 23 x[97] - 16 x[98] - 44 x[99] - 24 x[100] - 93 x[101] - 34 x[102]
   - 77 x[103] - 66 x[104] - 22 x[105] - 33 x[106] - 40 x[107] - 97 x[108]
   - 68 x[109]
Subject To
 primal_upper: 19 x[0] + 43 x[1] + 37 x[2] + 22 x[3] + 63 x[4] + 37 x[5]
   + 28 x[6] + 99 x[7] + 68 x[8] + 57 x[9] + 23 x[10] + 74 x[11] + 75 x[12]
   + 87 x[13] + 52 x[14] + 64 x[15] + 88 x[16] + 31 x[17] + 16 x[18]
   + 45 x[19] + 44 x[20] + 71 x[21] + 71 x[22] + 42 x[23] + 8 x[24]
   + 27 x[25] + 73 x[26] + 3 x[27] + x[28] + 18 x[29] + 25 x[30] + 51 x[31]
   + 3 x[32] + 24 x[33] + 11 x[34] + 68 x[35] + 31 x[36] + 28 x[37]
   + 47 x[38] + 70 x[39] + 38 x[40] + 45 x[41] + 77 x[42] + 85 x[43]
   + 94 x[44] + 26 x[45] + 29 x[46] + 81 x[47] + 70 x[48] + 7 x[49]
   + 58 x[50] + 75 x[51] + 60 x[52] + 23 x[53] + 68 x[54] + 91 x[55]
   + 88 x[56] + 26 x[57] + 27 x[58] + 81 x[59] + 44 x[60] + 62 x[61]
   + 63 x[62] + 82 x[63] + 99 x[64] + 51 x[65] + 52 x[66] + 6 x[67]
   + 31 x[68] + 25 x[69] + 93 x[70] + 85 x[71] + 81 x[72] + 34 x[73]
   + 75 x[74] + 36 x[75] + 46 x[76] + 14 x[77] + 48 x[78] + 62 x[79]
   + 41 x[80] + 89 x[81] + 90 x[82] + 77 x[83] + 85 x[84] + 53 x[85]
   + 23 x[86] + 75 x[87] + 77 x[88] + 94 x[89] + 52 x[90] + 88 x[91]
   + 72 x[92] + 31 x[93] + 15 x[94] + 68 x[95] + 20 x[96] + 32 x[97]
   + 83 x[98] + 43 x[99] + 56 x[100] + 39 x[101] + 13 x[102] + 39 x[103]
   + 12 x[104] + 5 x[105] + 34 x[106] + 46 x[107] + 30 x[108] + 24 x[109]
   + 1.9 r[0] + 4.3 r[1] + 3.7 r[2] + 2.2 r[3] + 6.3 r[4] + 3.7 r[5]
   + 2.8 r[6] + 9.9 r[7] + 6.8 r[8] + 5.7 r[9] + 2.3 r[10] + 7.4 r[11]
   + 7.5 r[12] + 8.7 r[13] + 5.2 r[14] + 6.4 r[15] + 8.8 r[16] + 3.1 r[17]
   + 1.6 r[18] + 4.5 r[19] + 4.4 r[20] + 7.1 r[21] + 7.1 r[22] + 4.2 r[23]
   + 0.8 r[24] + 2.7 r[25] + 7.3 r[26] + 0.3 r[27] + 0.1 r[28] + 1.8 r[29]
   + 2.5 r[30] + 5.1 r[31] + 0.3 r[32] + 2.4 r[33] + 1.1 r[34] + 6.8 r[35]
   + 3.1 r[36] + 2.8 r[37] + 4.7 r[38] + 7 r[39] + 3.8 r[40] + 4.5 r[41]
   + 7.7 r[42] + 8.5 r[43] + 9.4 r[44] + 2.6 r[45] + 2.9 r[46] + 8.1 r[47]
   + 7 r[48] + 0.7 r[49] + 5.8 r[50] + 7.5 r[51] + 6 r[52] + 2.3 r[53]
   + 6.8 r[54] + 9.1 r[55] + 8.8 r[56] + 2.6 r[57] + 2.7 r[58] + 8.1 r[59]
   + 4.4 r[60] + 6.2 r[61] + 6.3 r[62] + 8.2 r[63] + 9.9 r[64] + 5.1 r[65]
   + 5.2 r[66] + 0.6 r[67] + 3.1 r[68] + 2.5 r[69] + 9.3 r[70] + 8.5 r[71]
   + 8.1 r[72] + 3.4 r[73] + 7.5 r[74] + 3.6 r[75] + 4.6 r[76] + 1.4 r[77]
   + 4.8 r[78] + 6.2 r[79] + 4.1 r[80] + 8.9 r[81] + 9 r[82] + 7.7 r[83]
   + 8.5 r[84] + 5.3 r[85] + 2.3 r[86] + 7.5 r[87] + 7.7 r[88] + 9.4 r[89]
   + 5.2 r[90] + 8.8 r[91] + 7.2 r[92] + 3.1 r[93] + 1.5 r[94] + 6.8 r[95]
   + 2 r[96] + 3.2 r[97] + 8.3 r[98] + 4.3 r[99] + 5.6 r[100] + 3.9 r[101]
   + 1.3 r[102] + 3.9 r[103] + 1.2 r[104] + 0.5 r[105] + 3.4 r[106]
   + 4.6 r[107] + 3 r[108] + 2.4 r[109] <= 522
 primal_lower: 0.2720713402818181 x[0] + 2.715720217981525 x[1]
   + 2.164626831257936 x[2] + 2.44452073355064 x[3]
   + 3.231326993546862 x[4] + 0.2496558287955033 x[5]
   + 3.172467619512862 x[6] + 0.9632908497446827 x[7]
   + 0.0122630873744343 x[8] + 2.277680185123471 x[9]
   + 2.897864683966487 x[10] + 3.370562572217576 x[11]
   + 3.734021971884332 x[12] + 4.513960182163462 x[13]
   + 2.770702203152842 x[14] + 0.8261334451412942 x[15]
   + 1.385139281545735 x[16] + 0.9908564236620411 x[17]
   + 4.172389792326534 x[18] + 3.62231958811086 x[19]
   + 0.0406565612913251 x[20] + 3.253814205115686 x[21]
   + 1.21289647142913 x[22] + 3.528002975451981 x[23]
   + 2.081881047151194 x[24] + 2.426407090623105 x[25]
   + 4.077282340728601 x[26] + 1.345217937999664 x[27]
   + 2.383891453971693 x[28] + 2.149834846967284 x[29]
   + 4.052858285022274 x[30] + 0.8629744962650173 x[31]
   + 3.728634075034949 x[32] + 2.201875931265187 x[33]
   + 1.210795622429444 x[34] + 4.474264506154857 x[35]
   + 4.43806452047413 x[36] + 2.897727615884881 x[37]
   + 4.591527560453469 x[38] + 4.056703518516044 x[39]
   + 3.870943481292551 x[40] + 2.243881099709363 x[41]
   + 0.9018788513606751 x[42] + 1.625531381206332 x[43]
   + 3.989096536151091 x[44] + 1.554851295608399 x[45]
   + 0.9366961775668154 x[46] + 0.0568564545698262 x[47]
   + 0.5930540957261443 x[48] + 1.60572570966506 x[49]
   + 2.312859760777223 x[50] + 4.545942966671502 x[51]
   + 0.255586016453926 x[52] + 1.926826566861907 x[53]
   + 3.760449651102363 x[54] + 2.845115182929 x[55]
   + 2.921243065547321 x[56] + 3.184197675514206 x[57]
   + 1.791816757983354 x[58] + 0.0553919824076666 x[59]
   + 2.408080499870382 x[60] + 3.674054373532011 x[61]
   + 4.071193933998383 x[62] + 1.703141496669619 x[63]
   + 2.428654609839205 x[64] + 2.422304355862908 x[65]
   + 4.367017228130853 x[66] + 3.582238327025451 x[67]
   + 0.8700696588725443 x[68] + 0.2688300456886469 x[69]
   + 0.4762950910507958 x[70] + 4.39834658461976 x[71]
   + 3.238971250792458 x[72] + 2.117077476960484 x[73]
   + 0.4785616534288322 x[74] + 2.69048884448969 x[75]
   + 2.956029493243133 x[76] + 1.490350245464535 x[77]
   + 3.19404852807483 x[78] + 2.167433306319537 x[79]
   + 0.9853195324552907 x[80] + 0.6972369047341075 x[81]
   + 1.098978573024977 x[82] + 1.201619190803129 x[83]
   + 2.934711530045282 x[84] + 2.245340406225266 x[85]
   + 3.000884596576611 x[86] + 0.927966034074056 x[87]
   + 3.879535397641241 x[88] + 1.667007183086836 x[89]
   + 1.555314976354844 x[90] + 4.380808247372091 x[91]
   + 3.395865072827599 x[92] + 1.937800762579074 x[93]
   + 2.219472816416931 x[94] + 2.403884162005461 x[95]
   + 2.421675475829667 x[96] + 2.309154689039673 x[97]
   + 0.8223878294820134 x[98] + 3.60453943301552 x[99]
   + 1.030431657792108 x[100] + 2.820518039667658 x[101]
   + 4.10447300747268 x[102] + 4.1181439186 x[103]
   + 2.655567666536743 x[104] + 3.275050865670681 x[105]
   + 2.578427190355633 x[106] + 4.534052964114712 x[107]
   + 4.603698381141689 x[108] + 4.500004087221289 x[109] + 49 u[0]
   + 21 u[1] + 59 u[2] + 8 u[3] + 89 u[4] + 99 u[5] + 46 u[6] + 61 u[7]
   + 54 u[8] + 83 u[9] + 21 u[10] + 76 u[11] + 17 u[12] + 17 u[13]
   + 34 u[14] + 10 u[15] + 86 u[16] + 93 u[17] + 70 u[18] + 59 u[19]
   + 66 u[20] + 17 u[21] + 5 u[22] + 56 u[23] + 66 u[24] + 61 u[25]
   + 15 u[26] + 25 u[27] + 39 u[28] + 68 u[29] + 95 u[30] + u[31] + 5 u[32]
   + 14 u[33] + 69 u[34] + 54 u[35] + 13 u[36] + 2 u[37] + 93 u[38]
   + 72 u[39] + 32 u[40] + 15 u[41] + 91 u[42] + 71 u[43] + 68 u[44]
   + 72 u[45] + 99 u[46] + 11 u[47] + 4 u[48] + 97 u[49] + 16 u[50]
   + 73 u[51] + 18 u[52] + 25 u[53] + 66 u[54] + 29 u[55] + 70 u[56]
   + 84 u[57] + 89 u[58] + 75 u[59] + 58 u[60] + 24 u[61] + 37 u[62]
   + 52 u[63] + 33 u[64] + 73 u[65] + 98 u[66] + 16 u[67] + 81 u[68]
   + 43 u[69] + 23 u[70] + 95 u[71] + 15 u[72] + 36 u[73] + 81 u[74]
   + 50 u[75] + 64 u[76] + 20 u[77] + 2 u[78] + 24 u[79] + 7 u[80]
   + 99 u[81] + 84 u[82] + 87 u[83] + 91 u[84] + 31 u[85] + 9 u[86]
   + 97 u[87] + 47 u[88] + 76 u[89] + 26 u[90] + 6 u[91] + 42 u[92] + u[93]
   + 37 u[94] + 66 u[95] + 54 u[96] + 6 u[97] + 85 u[98] + 9 u[99]
   + 46 u[100] + 25 u[101] + 15 u[102] + 65 u[103] + 70 u[104] + 39 u[105]
   + 4 u[106] + 60 u[107] + 80 u[108] + 46 u[109] <= 3356
 mccormick1[0]: - u[0] + r[0] <= 0
 mccormick1[1]: - u[1] + r[1] <= 0
 mccormick1[2]: - u[2] + r[2] <= 0
 mccormick1[3]: - u[3] + r[3] <= 0
 mccormick1[4]: - u[4] + r[4] <= 0
 mccormick1[5]: - u[5] + r[5] <= 0
 mccormick1[6]: - u[6] + r[6] <= 0
 mccormick1[7]: - u[7] + r[7] <= 0
 mccormick1[8]: - u[8] + r[8] <= 0
 mccormick1[9]: - u[9] + r[9] <= 0
 mccormick1[10]: - u[10] + r[10] <= 0
 mccormick1[11]: - u[11] + r[11] <= 0
 mccormick1[12]: - u[12] + r[12] <= 0
 mccormick1[13]: - u[13] + r[13] <= 0
 mccormick1[14]: - u[14] + r[14] <= 0
 mccormick1[15]: - u[15] + r[15] <= 0
 mccormick1[16]: - u[16] + r[16] <= 0
 mccormick1[17]: - u[17] + r[17] <= 0
 mccormick1[18]: - u[18] + r[18] <= 0
 mccormick1[19]: - u[19] + r[19] <= 0
 mccormick1[20]: - u[20] + r[20] <= 0
 mccormick1[21]: - u[21] + r[21] <= 0
 mccormick1[22]: - u[22] + r[22] <= 0
 mccormick1[23]: - u[23] + r[23] <= 0
 mccormick1[24]: - u[24] + r[24] <= 0
 mccormick1[25]: - u[25] + r[25] <= 0
 mccormick1[26]: - u[26] + r[26] <= 0
 mccormick1[27]: - u[27] + r[27] <= 0
 mccormick1[28]: - u[28] + r[28] <= 0
 mccormick1[29]: - u[29] + r[29] <= 0
 mccormick1[30]: - u[30] + r[30] <= 0
 mccormick1[31]: - u[31] + r[31] <= 0
 mccormick1[32]: - u[32] + r[32] <= 0
 mccormick1[33]: - u[33] + r[33] <= 0
 mccormick1[34]: - u[34] + r[34] <= 0
 mccormick1[35]: - u[35] + r[35] <= 0
 mccormick1[36]: - u[36] + r[36] <= 0
 mccormick1[37]: - u[37] + r[37] <= 0
 mccormick1[38]: - u[38] + r[38] <= 0
 mccormick1[39]: - u[39] + r[39] <= 0
 mccormick1[40]: - u[40] + r[40] <= 0
 mccormick1[41]: - u[41] + r[41] <= 0
 mccormick1[42]: - u[42] + r[42] <= 0
 mccormick1[43]: - u[43] + r[43] <= 0
 mccormick1[44]: - u[44] + r[44] <= 0
 mccormick1[45]: - u[45] + r[45] <= 0
 mccormick1[46]: - u[46] + r[46] <= 0
 mccormick1[47]: - u[47] + r[47] <= 0
 mccormick1[48]: - u[48] + r[48] <= 0
 mccormick1[49]: - u[49] + r[49] <= 0
 mccormick1[50]: - u[50] + r[50] <= 0
 mccormick1[51]: - u[51] + r[51] <= 0
 mccormick1[52]: - u[52] + r[52] <= 0
 mccormick1[53]: - u[53] + r[53] <= 0
 mccormick1[54]: - u[54] + r[54] <= 0
 mccormick1[55]: - u[55] + r[55] <= 0
 mccormick1[56]: - u[56] + r[56] <= 0
 mccormick1[57]: - u[57] + r[57] <= 0
 mccormick1[58]: - u[58] + r[58] <= 0
 mccormick1[59]: - u[59] + r[59] <= 0
 mccormick1[60]: - u[60] + r[60] <= 0
 mccormick1[61]: - u[61] + r[61] <= 0
 mccormick1[62]: - u[62] + r[62] <= 0
 mccormick1[63]: - u[63] + r[63] <= 0
 mccormick1[64]: - u[64] + r[64] <= 0
 mccormick1[65]: - u[65] + r[65] <= 0
 mccormick1[66]: - u[66] + r[66] <= 0
 mccormick1[67]: - u[67] + r[67] <= 0
 mccormick1[68]: - u[68] + r[68] <= 0
 mccormick1[69]: - u[69] + r[69] <= 0
 mccormick1[70]: - u[70] + r[70] <= 0
 mccormick1[71]: - u[71] + r[71] <= 0
 mccormick1[72]: - u[72] + r[72] <= 0
 mccormick1[73]: - u[73] + r[73] <= 0
 mccormick1[74]: - u[74] + r[74] <= 0
 mccormick1[75]: - u[75] + r[75] <= 0
 mccormick1[76]: - u[76] + r[76] <= 0
 mccormick1[77]: - u[77] + r[77] <= 0
 mccormick1[78]: - u[78] + r[78] <= 0
 mccormick1[79]: - u[79] + r[79] <= 0
 mccormick1[80]: - u[80] + r[80] <= 0
 mccormick1[81]: - u[81] + r[81] <= 0
 mccormick1[82]: - u[82] + r[82] <= 0
 mccormick1[83]: - u[83] + r[83] <= 0
 mccormick1[84]: - u[84] + r[84] <= 0
 mccormick1[85]: - u[85] + r[85] <= 0
 mccormick1[86]: - u[86] + r[86] <= 0
 mccormick1[87]: - u[87] + r[87] <= 0
 mccormick1[88]: - u[88] + r[88] <= 0
 mccormick1[89]: - u[89] + r[89] <= 0
 mccormick1[90]: - u[90] + r[90] <= 0
 mccormick1[91]: - u[91] + r[91] <= 0
 mccormick1[92]: - u[92] + r[92] <= 0
 mccormick1[93]: - u[93] + r[93] <= 0
 mccormick1[94]: - u[94] + r[94] <= 0
 mccormick1[95]: - u[95] + r[95] <= 0
 mccormick1[96]: - u[96] + r[96] <= 0
 mccormick1[97]: - u[97] + r[97] <= 0
 mccormick1[98]: - u[98] + r[98] <= 0
 mccormick1[99]: - u[99] + r[99] <= 0
 mccormick1[100]: - u[100] + r[100] <= 0
 mccormick1[101]: - u[101] + r[101] <= 0
 mccormick1[102]: - u[102] + r[102] <= 0
 mccormick1[103]: - u[103] + r[103] <= 0
 mccormick1[104]: - u[104] + r[104] <= 0
 mccormick1[105]: - u[105] + r[105] <= 0
 mccormick1[106]: - u[106] + r[106] <= 0
 mccormick1[107]: - u[107] + r[107] <= 0
 mccormick1[108]: - u[108] + r[108] <= 0
 mccormick1[109]: - u[109] + r[109] <= 0
 mccormick2[0]: - x[0] + r[0] <= 0
 mccormick2[1]: - x[1] + r[1] <= 0
 mccormick2[2]: - x[2] + r[2] <= 0
 mccormick2[3]: - x[3] + r[3] <= 0
 mccormick2[4]: - x[4] + r[4] <= 0
 mccormick2[5]: - x[5] + r[5] <= 0
 mccormick2[6]: - x[6] + r[6] <= 0
 mccormick2[7]: - x[7] + r[7] <= 0
 mccormick2[8]: - x[8] + r[8] <= 0
 mccormick2[9]: - x[9] + r[9] <= 0
 mccormick2[10]: - x[10] + r[10] <= 0
 mccormick2[11]: - x[11] + r[11] <= 0
 mccormick2[12]: - x[12] + r[12] <= 0
 mccormick2[13]: - x[13] + r[13] <= 0
 mccormick2[14]: - x[14] + r[14] <= 0
 mccormick2[15]: - x[15] + r[15] <= 0
 mccormick2[16]: - x[16] + r[16] <= 0
 mccormick2[17]: - x[17] + r[17] <= 0
 mccormick2[18]: - x[18] + r[18] <= 0
 mccormick2[19]: - x[19] + r[19] <= 0
 mccormick2[20]: - x[20] + r[20] <= 0
 mccormick2[21]: - x[21] + r[21] <= 0
 mccormick2[22]: - x[22] + r[22] <= 0
 mccormick2[23]: - x[23] + r[23] <= 0
 mccormick2[24]: - x[24] + r[24] <= 0
 mccormick2[25]: - x[25] + r[25] <= 0
 mccormick2[26]: - x[26] + r[26] <= 0
 mccormick2[27]: - x[27] + r[27] <= 0
 mccormick2[28]: - x[28] + r[28] <= 0
 mccormick2[29]: - x[29] + r[29] <= 0
 mccormick2[30]: - x[30] + r[30] <= 0
 mccormick2[31]: - x[31] + r[31] <= 0
 mccormick2[32]: - x[32] + r[32] <= 0
 mccormick2[33]: - x[33] + r[33] <= 0
 mccormick2[34]: - x[34] + r[34] <= 0
 mccormick2[35]: - x[35] + r[35] <= 0
 mccormick2[36]: - x[36] + r[36] <= 0
 mccormick2[37]: - x[37] + r[37] <= 0
 mccormick2[38]: - x[38] + r[38] <= 0
 mccormick2[39]: - x[39] + r[39] <= 0
 mccormick2[40]: - x[40] + r[40] <= 0
 mccormick2[41]: - x[41] + r[41] <= 0
 mccormick2[42]: - x[42] + r[42] <= 0
 mccormick2[43]: - x[43] + r[43] <= 0
 mccormick2[44]: - x[44] + r[44] <= 0
 mccormick2[45]: - x[45] + r[45] <= 0
 mccormick2[46]: - x[46] + r[46] <= 0
 mccormick2[47]: - x[47] + r[47] <= 0
 mccormick2[48]: - x[48] + r[48] <= 0
 mccormick2[49]: - x[49] + r[49] <= 0
 mccormick2[50]: - x[50] + r[50] <= 0
 mccormick2[51]: - x[51] + r[51] <= 0
 mccormick2[52]: - x[52] + r[52] <= 0
 mccormick2[53]: - x[53] + r[53] <= 0
 mccormick2[54]: - x[54] + r[54] <= 0
 mccormick2[55]: - x[55] + r[55] <= 0
 mccormick2[56]: - x[56] + r[56] <= 0
 mccormick2[57]: - x[57] + r[57] <= 0
 mccormick2[58]: - x[58] + r[58] <= 0
 mccormick2[59]: - x[59] + r[59] <= 0
 mccormick2[60]: - x[60] + r[60] <= 0
 mccormick2[61]: - x[61] + r[61] <= 0
 mccormick2[62]: - x[62] + r[62] <= 0
 mccormick2[63]: - x[63] + r[63] <= 0
 mccormick2[64]: - x[64] + r[64] <= 0
 mccormick2[65]: - x[65] + r[65] <= 0
 mccormick2[66]: - x[66] + r[66] <= 0
 mccormick2[67]: - x[67] + r[67] <= 0
 mccormick2[68]: - x[68] + r[68] <= 0
 mccormick2[69]: - x[69] + r[69] <= 0
 mccormick2[70]: - x[70] + r[70] <= 0
 mccormick2[71]: - x[71] + r[71] <= 0
 mccormick2[72]: - x[72] + r[72] <= 0
 mccormick2[73]: - x[73] + r[73] <= 0
 mccormick2[74]: - x[74] + r[74] <= 0
 mccormick2[75]: - x[75] + r[75] <= 0
 mccormick2[76]: - x[76] + r[76] <= 0
 mccormick2[77]: - x[77] + r[77] <= 0
 mccormick2[78]: - x[78] + r[78] <= 0
 mccormick2[79]: - x[79] + r[79] <= 0
 mccormick2[80]: - x[80] + r[80] <= 0
 mccormick2[81]: - x[81] + r[81] <= 0
 mccormick2[82]: - x[82] + r[82] <= 0
 mccormick2[83]: - x[83] + r[83] <= 0
 mccormick2[84]: - x[84] + r[84] <= 0
 mccormick2[85]: - x[85] + r[85] <= 0
 mccormick2[86]: - x[86] + r[86] <= 0
 mccormick2[87]: - x[87] + r[87] <= 0
 mccormick2[88]: - x[88] + r[88] <= 0
 mccormick2[89]: - x[89] + r[89] <= 0
 mccormick2[90]: - x[90] + r[90] <= 0
 mccormick2[91]: - x[91] + r[91] <= 0
 mccormick2[92]: - x[92] + r[92] <= 0
 mccormick2[93]: - x[93] + r[93] <= 0
 mccormick2[94]: - x[94] + r[94] <= 0
 mccormick2[95]: - x[95] + r[95] <= 0
 mccormick2[96]: - x[96] + r[96] <= 0
 mccormick2[97]: - x[97] + r[97] <= 0
 mccormick2[98]: - x[98] + r[98] <= 0
 mccormick2[99]: - x[99] + r[99] <= 0
 mccormick2[100]: - x[100] + r[100] <= 0
 mccormick2[101]: - x[101] + r[101] <= 0
 mccormick2[102]: - x[102] + r[102] <= 0
 mccormick2[103]: - x[103] + r[103] <= 0
 mccormick2[104]: - x[104] + r[104] <= 0
 mccormick2[105]: - x[105] + r[105] <= 0
 mccormick2[106]: - x[106] + r[106] <= 0
 mccormick2[107]: - x[107] + r[107] <= 0
 mccormick2[108]: - x[108] + r[108] <= 0
 mccormick2[109]: - x[109] + r[109] <= 0
 mccormick3[0]: x[0] + u[0] - r[0] <= 1
 mccormick3[1]: x[1] + u[1] - r[1] <= 1
 mccormick3[2]: x[2] + u[2] - r[2] <= 1
 mccormick3[3]: x[3] + u[3] - r[3] <= 1
 mccormick3[4]: x[4] + u[4] - r[4] <= 1
 mccormick3[5]: x[5] + u[5] - r[5] <= 1
 mccormick3[6]: x[6] + u[6] - r[6] <= 1
 mccormick3[7]: x[7] + u[7] - r[7] <= 1
 mccormick3[8]: x[8] + u[8] - r[8] <= 1
 mccormick3[9]: x[9] + u[9] - r[9] <= 1
 mccormick3[10]: x[10] + u[10] - r[10] <= 1
 mccormick3[11]: x[11] + u[11] - r[11] <= 1
 mccormick3[12]: x[12] + u[12] - r[12] <= 1
 mccormick3[13]: x[13] + u[13] - r[13] <= 1
 mccormick3[14]: x[14] + u[14] - r[14] <= 1
 mccormick3[15]: x[15] + u[15] - r[15] <= 1
 mccormick3[16]: x[16] + u[16] - r[16] <= 1
 mccormick3[17]: x[17] + u[17] - r[17] <= 1
 mccormick3[18]: x[18] + u[18] - r[18] <= 1
 mccormick3[19]: x[19] + u[19] - r[19] <= 1
 mccormick3[20]: x[20] + u[20] - r[20] <= 1
 mccormick3[21]: x[21] + u[21] - r[21] <= 1
 mccormick3[22]: x[22] + u[22] - r[22] <= 1
 mccormick3[23]: x[23] + u[23] - r[23] <= 1
 mccormick3[24]: x[24] + u[24] - r[24] <= 1
 mccormick3[25]: x[25] + u[25] - r[25] <= 1
 mccormick3[26]: x[26] + u[26] - r[26] <= 1
 mccormick3[27]: x[27] + u[27] - r[27] <= 1
 mccormick3[28]: x[28] + u[28] - r[28] <= 1
 mccormick3[29]: x[29] + u[29] - r[29] <= 1
 mccormick3[30]: x[30] + u[30] - r[30] <= 1
 mccormick3[31]: x[31] + u[31] - r[31] <= 1
 mccormick3[32]: x[32] + u[32] - r[32] <= 1
 mccormick3[33]: x[33] + u[33] - r[33] <= 1
 mccormick3[34]: x[34] + u[34] - r[34] <= 1
 mccormick3[35]: x[35] + u[35] - r[35] <= 1
 mccormick3[36]: x[36] + u[36] - r[36] <= 1
 mccormick3[37]: x[37] + u[37] - r[37] <= 1
 mccormick3[38]: x[38] + u[38] - r[38] <= 1
 mccormick3[39]: x[39] + u[39] - r[39] <= 1
 mccormick3[40]: x[40] + u[40] - r[40] <= 1
 mccormick3[41]: x[41] + u[41] - r[41] <= 1
 mccormick3[42]: x[42] + u[42] - r[42] <= 1
 mccormick3[43]: x[43] + u[43] - r[43] <= 1
 mccormick3[44]: x[44] + u[44] - r[44] <= 1
 mccormick3[45]: x[45] + u[45] - r[45] <= 1
 mccormick3[46]: x[46] + u[46] - r[46] <= 1
 mccormick3[47]: x[47] + u[47] - r[47] <= 1
 mccormick3[48]: x[48] + u[48] - r[48] <= 1
 mccormick3[49]: x[49] + u[49] - r[49] <= 1
 mccormick3[50]: x[50] + u[50] - r[50] <= 1
 mccormick3[51]: x[51] + u[51] - r[51] <= 1
 mccormick3[52]: x[52] + u[52] - r[52] <= 1
 mccormick3[53]: x[53] + u[53] - r[53] <= 1
 mccormick3[54]: x[54] + u[54] - r[54] <= 1
 mccormick3[55]: x[55] + u[55] - r[55] <= 1
 mccormick3[56]: x[56] + u[56] - r[56] <= 1
 mccormick3[57]: x[57] + u[57] - r[57] <= 1
 mccormick3[58]: x[58] + u[58] - r[58] <= 1
 mccormick3[59]: x[59] + u[59] - r[59] <= 1
 mccormick3[60]: x[60] + u[60] - r[60] <= 1
 mccormick3[61]: x[61] + u[61] - r[61] <= 1
 mccormick3[62]: x[62] + u[62] - r[62] <= 1
 mccormick3[63]: x[63] + u[63] - r[63] <= 1
 mccormick3[64]: x[64] + u[64] - r[64] <= 1
 mccormick3[65]: x[65] + u[65] - r[65] <= 1
 mccormick3[66]: x[66] + u[66] - r[66] <= 1
 mccormick3[67]: x[67] + u[67] - r[67] <= 1
 mccormick3[68]: x[68] + u[68] - r[68] <= 1
 mccormick3[69]: x[69] + u[69] - r[69] <= 1
 mccormick3[70]: x[70] + u[70] - r[70] <= 1
 mccormick3[71]: x[71] + u[71] - r[71] <= 1
 mccormick3[72]: x[72] + u[72] - r[72] <= 1
 mccormick3[73]: x[73] + u[73] - r[73] <= 1
 mccormick3[74]: x[74] + u[74] - r[74] <= 1
 mccormick3[75]: x[75] + u[75] - r[75] <= 1
 mccormick3[76]: x[76] + u[76] - r[76] <= 1
 mccormick3[77]: x[77] + u[77] - r[77] <= 1
 mccormick3[78]: x[78] + u[78] - r[78] <= 1
 mccormick3[79]: x[79] + u[79] - r[79] <= 1
 mccormick3[80]: x[80] + u[80] - r[80] <= 1
 mccormick3[81]: x[81] + u[81] - r[81] <= 1
 mccormick3[82]: x[82] + u[82] - r[82] <= 1
 mccormick3[83]: x[83] + u[83] - r[83] <= 1
 mccormick3[84]: x[84] + u[84] - r[84] <= 1
 mccormick3[85]: x[85] + u[85] - r[85] <= 1
 mccormick3[86]: x[86] + u[86] - r[86] <= 1
 mccormick3[87]: x[87] + u[87] - r[87] <= 1
 mccormick3[88]: x[88] + u[88] - r[88] <= 1
 mccormick3[89]: x[89] + u[89] - r[89] <= 1
 mccormick3[90]: x[90] + u[90] - r[90] <= 1
 mccormick3[91]: x[91] + u[91] - r[91] <= 1
 mccormick3[92]: x[92] + u[92] - r[92] <= 1
 mccormick3[93]: x[93] + u[93] - r[93] <= 1
 mccormick3[94]: x[94] + u[94] - r[94] <= 1
 mccormick3[95]: x[95] + u[95] - r[95] <= 1
 mccormick3[96]: x[96] + u[96] - r[96] <= 1
 mccormick3[97]: x[97] + u[97] - r[97] <= 1
 mccormick3[98]: x[98] + u[98] - r[98] <= 1
 mccormick3[99]: x[99] + u[99] - r[99] <= 1
 mccormick3[100]: x[100] + u[100] - r[100] <= 1
 mccormick3[101]: x[101] + u[101] - r[101] <= 1
 mccormick3[102]: x[102] + u[102] - r[102] <= 1
 mccormick3[103]: x[103] + u[103] - r[103] <= 1
 mccormick3[104]: x[104] + u[104] - r[104] <= 1
 mccormick3[105]: x[105] + u[105] - r[105] <= 1
 mccormick3[106]: x[106] + u[106] - r[106] <= 1
 mccormick3[107]: x[107] + u[107] - r[107] <= 1
 mccormick3[108]: x[108] + u[108] - r[108] <= 1
 mccormick3[109]: x[109] + u[109] - r[109] <= 1
Bounds
Binaries
 x[0] x[1] x[2] x[3] x[4] x[5] x[6] x[7] x[8] x[9] x[10] x[11] x[12] x[13]
 x[14] x[15] x[16] x[17] x[18] x[19] x[20] x[21] x[22] x[23] x[24] x[25]
 x[26] x[27] x[28] x[29] x[30] x[31] x[32] x[33] x[34] x[35] x[36] x[37]
 x[38] x[39] x[40] x[41] x[42] x[43] x[44] x[45] x[46] x[47] x[48] x[49]
 x[50] x[51] x[52] x[53] x[54] x[55] x[56] x[57] x[58] x[59] x[60] x[61]
 x[62] x[63] x[64] x[65] x[66] x[67] x[68] x[69] x[70] x[71] x[72] x[73]
 x[74] x[75] x[76] x[77] x[78] x[79] x[80] x[81] x[82] x[83] x[84] x[85]
 x[86] x[87] x[88] x[89] x[90] x[91] x[92] x[93] x[94] x[95] x[96] x[97]
 x[98] x[99] x[100] x[101] x[102] x[103] x[104] x[105] x[106] x[107] x[108]
 x[109] u[0] u[1] u[2] u[3] u[4] u[5] u[6] u[7] u[8] u[9] u[10] u[11] u[12]
 u[13] u[14] u[15] u[16] u[17] u[18] u[19] u[20] u[21] u[22] u[23] u[24]
 u[25] u[26] u[27] u[28] u[29] u[30] u[31] u[32] u[33] u[34] u[35] u[36]
 u[37] u[38] u[39] u[40] u[41] u[42] u[43] u[44] u[45] u[46] u[47] u[48]
 u[49] u[50] u[51] u[52] u[53] u[54] u[55] u[56] u[57] u[58] u[59] u[60]
 u[61] u[62] u[63] u[64] u[65] u[66] u[67] u[68] u[69] u[70] u[71] u[72]
 u[73] u[74] u[75] u[76] u[77] u[78] u[79] u[80] u[81] u[82] u[83] u[84]
 u[85] u[86] u[87] u[88] u[89] u[90] u[91] u[92] u[93] u[94] u[95] u[96]
 u[97] u[98] u[99] u[100] u[101] u[102] u[103] u[104] u[105] u[106] u[107]
 u[108] u[109] r[0] r[1] r[2] r[3] r[4] r[5] r[6] r[7] r[8] r[9] r[10]
 r[11] r[12] r[13] r[14] r[15] r[16] r[17] r[18] r[19] r[20] r[21] r[22]
 r[23] r[24] r[25] r[26] r[27] r[28] r[29] r[30] r[31] r[32] r[33] r[34]
 r[35] r[36] r[37] r[38] r[39] r[40] r[41] r[42] r[43] r[44] r[45] r[46]
 r[47] r[48] r[49] r[50] r[51] r[52] r[53] r[54] r[55] r[56] r[57] r[58]
 r[59] r[60] r[61] r[62] r[63] r[64] r[65] r[66] r[67] r[68] r[69] r[70]
 r[71] r[72] r[73] r[74] r[75] r[76] r[77] r[78] r[79] r[80] r[81] r[82]
 r[83] r[84] r[85] r[86] r[87] r[88] r[89] r[90] r[91] r[92] r[93] r[94]
 r[95] r[96] r[97] r[98] r[99] r[100] r[101] r[102] r[103] r[104] r[105]
 r[106] r[107] r[108] r[109]
End
