instances/knapsack/discrete/knapsack_110_5.kp
42376
110
522

19 1.9 65
43 4.3 2
37 3.7 15
22 2.2 75
63 6.3 9
37 3.7 100
28 2.8 61
99 9.9 35
68 6.8 86
57 5.7 18
23 2.3 58
74 7.4 22
75 7.5 10
87 8.7 49
52 5.2 86
64 6.4 83
88 8.8 45
31 3.1 57
16 1.6 26
45 4.5 73
44 4.4 21
71 7.1 90
71 7.1 23
42 4.2 15
8 0.8 80
27 2.7 66
73 7.3 83
3 0.3 19
1 0.1 13
18 1.8 96
25 2.5 96
51 5.1 91
3 0.3 23
24 2.4 14
11 1.1 67
68 6.8 64
31 3.1 44
28 2.8 10
47 4.7 34
70 7.0 71
38 3.8 23
45 4.5 45
77 7.7 61
85 8.5 66
94 9.4 22
26 2.6 50
29 2.9 92
81 8.1 52
70 7.0 36
7 0.7 93
58 5.8 90
75 7.5 38
60 6.0 38
23 2.3 96
68 6.8 79
91 9.1 17
88 8.8 82
26 2.6 51
27 2.7 23
81 8.1 62
44 4.4 71
62 6.2 97
63 6.3 1
82 8.2 73
99 9.9 98
51 5.1 64
52 5.2 96
6 0.6 29
31 3.1 48
25 2.5 93
93 9.3 40
85 8.5 70
81 8.1 32
34 3.4 21
75 7.5 90
36 3.6 53
46 4.6 5
14 1.4 60
48 4.8 19
62 6.2 43
41 4.1 74
89 8.9 25
90 9.0 25
77 7.7 29
85 8.5 4
53 5.3 88
23 2.3 97
75 7.5 78
77 7.7 83
94 9.4 78
52 5.2 21
88 8.8 33
72 7.2 5
31 3.1 84
15 1.5 79
68 6.8 14
20 2.0 16
32 3.2 23
83 8.3 16
43 4.3 44
56 5.6 24
39 3.9 93
13 1.3 34
39 3.9 77
12 1.2 66
5 0.5 22
34 3.4 33
46 4.6 40
30 3.0 97
24 2.4 68

3356
507

[0.2720713402818181 2.7157202179815254 2.1646268312579355 2.4445207335506396 3.2313269935468623 0.2496558287955033 3.1724676195128616 0.9632908497446827 0.012263087374434342 2.2776801851234714 2.8978646839664868 3.3705625722175756 3.7340219718843324 4.513960182163462 2.7707022031528417 0.8261334451412942 1.3851392815457348 0.9908564236620411 4.172389792326534 3.6223195881108596 0.040656561291325104 3.253814205115686 1.2128964714291302 3.528002975451981 2.0818810471511937 2.4264070906231052 4.077282340728601 1.3452179379996643 2.383891453971693 2.149834846967284 4.052858285022274 0.8629744962650173 3.728634075034949 2.2018759312651874 1.210795622429444 4.474264506154857 4.43806452047413 2.8977276158848815 4.591527560453469 4.056703518516044 3.870943481292551 2.243881099709363 0.9018788513606751 1.6255313812063321 3.989096536151091 1.5548512956083986 0.9366961775668154 0.056856454569826166 0.5930540957261443 1.6057257096650597 2.3128597607772234 4.545942966671502 0.25558601645392603 1.9268265668619067 3.760449651102363 2.8451151829290002 2.9212430655473214 3.1841976755142056 1.7918167579833542 0.055391982407666636 2.4080804998703824 3.6740543735320106 4.071193933998383 1.7031414966696192 2.428654609839205 2.422304355862908 4.3670172281308535 3.5822383270254505 0.8700696588725443 0.26883004568864693 0.47629509105079576 4.39834658461976 3.238971250792458 2.1170774769604837 0.47856165342883217 2.69048884448969 2.9560294932431335 1.4903502454645348 3.19404852807483 2.1674333063195372 0.9853195324552907 0.6972369047341075 1.0989785730249775 1.2016191908031288 2.9347115300452815 2.245340406225266 3.000884596576611 0.927966034074056 3.8795353976412406 1.667007183086836 1.5553149763548444 4.380808247372091 3.395865072827599 1.937800762579074 2.219472816416931 2.4038841620054607 2.421675475829667 2.309154689039673 0.8223878294820134 3.60453943301552 1.030431657792108 2.8205180396676583 4.10447300747268 4.1181439185999995 2.6555676665367427 3.2750508656706807 2.5784271903556326 4.5340529641147125 4.603698381141689 4.5000040872212885]

[49 21 59 8 89 99 46 61 54 83 21 76 17 17 34 10 86 93 70 59 66 17 5 56 66 61 15 25 39 68 95 1 5 14 69 54 13 2 93 72 32 15 91 71 68 72 99 11 4 97 16 73 18 25 66 29 70 84 89 75 58 24 37 52 33 73 98 16 81 43 23 95 15 36 81 50 64 20 2 24 7 99 84 87 91 31 9 97 47 76 26 6 42 1 37 66 54 6 85 9 46 25 15 65 70 39 4 60 80 46]
